c --- [ banner ] -------------------------------------------------------------
c 
c CaDiCaL SAT Solver
c Copyright (c) 2016-2023 A. Biere, M. Fleury, N. Froleyks, K. Fazekas, F. Pollitt
c 
c Version 1.9.5
c g++ (Ubuntu 11.4.0-1ubuntu1~22.04) 11.4.0 -Wall -Wextra -O3 -DNDEBUG -static
c Thu Mar 7 06:16:21 CET 2024 Linux pc101447 6.5.0-17-generic x86_64
c 
c --- [ limit ] --------------------------------------------------------------
c 
c setting time limit to 3600 seconds real time (due to '-t 3600')
c 
c --- [ parsing input ] ------------------------------------------------------
c 
c reading DIMACS file from '/home/oliveras/SAT-comp-2023//cfc53adcc8ed18ca161bb6f8bc02b237-asconhashv12_opt64_H7_M2-gHvzZOd_m3_4_U11.c.cnf'
c opening file to read '/home/oliveras/SAT-comp-2023//cfc53adcc8ed18ca161bb6f8bc02b237-asconhashv12_opt64_H7_M2-gHvzZOd_m3_4_U11.c.cnf'
c found 'p cnf 127091 297397' header
c parsed 297397 clauses in 0.19 seconds process time
c 
c --- [ options ] ------------------------------------------------------------
c 
c   --seed=1                       (different from default '0')
c 
c --- [ solving ] ------------------------------------------------------------
c 
c time measured in process time since initialization
c 
c  seconds  reductions  redundant  irredundant
c         MB    restarts       trail       variables
c          level   conflicts       glue         remaining
c 
c *  0.19 51  0 0   0    0    0  0% 0 296682 77087 61%
c {  0.20 53  0 0   0    0    0  0% 0 296682 77087 61%
c i  0.20 53  1 0   0    1    0  2% 0 296682 77077 61%
c -  0.24 53 31355 1   2  301  273 27% 30 293308 77077 61%
c }  0.32 54 32119 1   6 1000  953 28% 18 293308 77077 61%
c [  0.32 54  0 1   6 1000  953  0% 0 293308 77077 61%
c O  0.34 54 22212 1   6 1003  955 34% 14 293308 77077 61%
c -  1.02 70 377 2   6 1182  788 15% 11 293308 77077 61%
c -  5.19 70 54 3   7 2502  494 14% 10 293308 77077 61%
c i  6.35 70 45 3   7 2867  511 14% 10 293308 77076 61%
c ]  6.78 70 43 3   7 3001  518 14% 10 293308 77076 61%
c {  6.78 70 32119 3   7 3001  518 28% 18 293308 77076 61%
c F  6.89 61 32023 3   7 3004  521  0% 18 293298 77076 61%
c i  6.89 61 30137 3   7 3067  562  2% 17 293298 77074 61%
c i  6.89 61 29913 3   7 3075  566  2% 17 293298 77072 61%
c i  6.90 61 22006 3  13 3475  913  3% 16 293298 77068 61%
c i  6.90 61 21991 3  13 3476  913  3% 16 293298 77056 61%
c s  6.99 73 17313 3  22 3889 1190  3% 15 293261 77056 61%
c v  7.17 73 17313 3  22 3889 1190  3% 15 293009 77056 61%
c w  7.20 73 17313 3  22 3889 1119  3% 15 293009 76948 61%
c 
c  seconds     reductions  redundant   irredundant
c         MB       restarts       trail        variables
c            level    conflicts       glue          remaining
c 
c t  7.21 73 17313 3  22 3889 1113  3% 15 292998 76940 61%
c e  7.58 73 17313 3  22 3889  224  3% 15 271143 45941 36%
c s  7.67 75 17313 3  22 3889  217  3% 15 271076 45941 36%
c e  7.72 75 17313 3  22 3889  212  3% 15 271055 45934 36%
c -  7.83 80 14587 4  30 4262  524  3% 15 271055 45934 36%
c 3  7.92 83 11046 4  61 5001 26281  2% 14 271055 45933 36%
c 3  7.95 83 11046 4  61 5001 27386  2% 14 271055 45933 36%
c d  8.00 83 11046 4  61 5001 26829  2% 14 271045 45897 36%
c 2  8.02 83 11046 4  61 5001 26808  2% 14 271045 45896 36%
c p  8.03 83 11046 4  61 5001 26926  2% 14 271045 45896 36%
c d  8.04 83 11046 4  61 5001 26903  2% 14 271030 45895 36%
c #  8.09 83 8347 4 118 6005 27779  2% 14 271026 45894 36%
c -  8.14 83 7587 5 143 6412 2577  2% 14 271026 45894 36%
c }  8.15 83 6704 5 186 7003 3121  2% 14 271026 45894 36%
c [  8.15 83 43 5 186 7003 3121 24% 10 271026 45894 36%
c - 13.11 94 30 6 187 8992 2656 22% 10 271026 45894 36%
c I 15.64 94 26 6 188 10007 2695 22% 10 271026 45894 36%
c - 20.57 94 21 7 190 12002 1497 22% 10 271026 45894 36%
c s 25.87 94 18 7 191 14134 1495 22% 9 270751 45894 36%
c v 26.16 94 18 7 191 14134 1495 22% 9 270326 45894 36%
c 
c  seconds  reductions   redundant  irredundant
c         MB    restarts        trail       variables
c          level    conflicts       glue         remaining
c 
c w 26.19 94 18 7 191 14134 1494 22% 9 270326 45894 36%
c t 26.20 94 18 7 191 14134 1493 22% 9 270324 45894 36%
c e 26.24 94 18 7 191 14134 1493 22% 9 270222 45792 36%
c s 26.25 94 18 7 191 14134 1479 22% 9 270221 45792 36%
c 3 28.48 94 17 7 191 15002 3230 22% 9 270220 45792 36%
c p 28.54 94 17 7 191 15002 4112 22% 9 270220 45788 36%
c ] 28.56 94 17 7 191 15004 4113 22% 9 270220 45788 36%
c { 28.56 94 6704 7 191 15004 4113  4% 14 270220 45788 36%
c B 28.56 94 6699 7 191 15008 4117  4% 14 270220 45788 36%
c - 28.60 94 6175 8 210 15441 1484  3% 14 270220 45788 36%
c - 28.74 94 3659 9 525 19306 4698  3% 14 270220 45788 36%
c W 28.97 94 3110 9 718 21010 6244  3% 14 270220 45788 36%
c - 29.13 94 2540 10 1022 23601 7379  3% 14 270220 45788 36%
c F 29.37 94 1943 10 1700 28011 11407  3% 15 270220 45788 36%
c - 29.43 94 1912 11 1760 28325 9616  3% 15 270220 45788 36%
c s 29.52 94 1801 11 1958 29501 10484  3% 15 270203 45788 36%
c v 29.69 94 1801 11 1958 29501 10484  3% 15 270202 45788 36%
c w 29.73 94 1801 11 1958 29501 10468  3% 15 270202 45788 36%
c s 29.78 94 1801 11 1958 29501 10412  3% 15 270202 45788 36%
c ^ 29.80 94 1801 11 1958 29501 10412  3% 15 270202 45788 36%
c 
c  seconds    reductions      redundant   irredundant
c         MB       restarts          trail        variables
c           level       conflicts        glue          remaining
c 
c 3 29.86 94 1760 11 2028 30002 12668  3% 15 270202 45788 36%
c p 29.91 94 1760 11 2028 30002 13234  3% 15 270202 45788 36%
c } 29.98 94 1681 11 2173 31004 14135  3% 15 270202 45788 36%
c [ 29.98 94 17 11 2173 31004 14135 22% 9 270202 45788 36%
c - 36.06 94 60 12 2174 33480 9142 23% 9 270202 45788 36%
c B 42.25 94 51 12 2176 36013 9223 23% 9 270202 45788 36%
c - 49.72 94 43 13 2178 39064 6265 23% 9 270202 45788 36%
c W 64.62 94 34 13 2180 45015 6454 23% 9 270202 45788 36%
c - 64.82 94 34 14 2180 45078 4333 23% 9 270202 45788 36%
c s 77.06 94 29 14 2181 49990 4458 23% 9 270202 45788 36%
c v 77.35 94 29 14 2181 49990 4458 23% 9 270201 45788 36%
c w 77.39 94 29 14 2181 49990 4458 23% 9 270201 45788 36%
c e 77.58 94 29 14 2181 49990 4454 23% 9 270205 45784 36%
c s 77.58 94 29 14 2181 49990 4446 23% 9 270203 45784 36%
c 3 77.70 94 29 14 2181 50002 4895 23% 9 270203 45784 36%
c 3 77.71 94 29 14 2181 50002 5080 23% 9 270203 45784 36%
c 2 77.75 94 29 14 2181 50002 5078 23% 9 270203 45784 36%
c p 77.76 94 29 14 2181 50002 5161 23% 9 270203 45784 36%
c - 81.49 94 28 15 2181 51520 3911 23% 8 270203 45784 36%
c O 90.03 94 25 15 2183 55017 4024 23% 8 270203 45784 36%
c 
c  seconds  reductions     redundant  irredundant
c         MB     restarts         trail       variables
c          level      conflicts       glue         remaining
c 
c - 98.27 94 23 16 2185 58392 3849 23% 8 270203 45784 36%
c ] 109.43 94 21 16 2188 63004 3995 23% 8 270203 45784 36%
c { 109.43 94 1681 16 2188 63004 3995  3% 15 270203 45784 36%
c - 109.59 94 1503 17 2568 65694 6193  3% 16 270203 45784 36%
c B 109.60 94 1484 17 2588 66020 6495  3% 16 270203 45784 36%
c - 110.08 94 1159 18 3765 73425 12005  3% 16 270203 45784 36%
c 3 110.20 94 1109 18 3986 75002 14301  3% 16 270203 45784 36%
c p 110.25 94 1109 18 3986 75002 14674  3% 16 270203 45784 36%
c s 110.33 94 1092 18 4080 75602 14692  3% 16 270203 45784 36%
c v 110.62 94 1092 18 4080 75602 14692  3% 16 270194 45784 36%
c w 110.70 94 1092 18 4080 75602 14660  3% 16 270194 45784 36%
c t 110.70 94 1092 18 4080 75602 14659  3% 16 270194 45784 36%
c s 110.76 94 1092 18 4080 75602 14540  3% 16 270194 45784 36%
c e 110.80 94 1092 18 4080 75602 14523  3% 16 270189 45781 36%
c W 111.62 94 1026 18 4631 78021 16722  3% 17 270189 45781 36%
c - 112.04 94 943 19 5520 81586 16012  3% 18 270189 45781 36%
c - 113.01 106 795 20 7582 90176 19177  3% 19 270189 45781 36%
c # 113.08 106 784 20 7727 91022 19946  3% 20 270189 45781 36%
c - 114.06 94 689 21 9514 99195 21900  3% 21 270189 45781 36%
c 3 114.63 94 636 21 10481 105002 27961  3% 21 270189 45781 36%
c 
c  seconds    reductions        redundant   irredundant
c          MB       restarts           trail        variables
c            level       conflicts         glue          remaining
c 
c p 114.68 94 636 21 10481 105002 28417  3% 21 270189 45781 36%
c B 114.70 94 636 21 10482 105024 28434  3% 21 270189 45781 36%
c s 114.89 94 626 21 10754 106337 29121  3% 21 270189 45781 36%
c w 115.12 94 626 21 10754 106337 29092  3% 21 270189 45781 36%
c t 115.12 94 626 21 10754 106337 29092  3% 21 270188 45781 36%
c s 115.19 94 626 21 10754 106337 29044  3% 21 270188 45781 36%
c ^ 115.22 94 626 21 10754 106337 29044  3% 21 270188 45781 36%
c - 115.56 94 608 22 11324 108645 24091  3% 22 270188 45781 36%
c - 116.81 94 545 23 13408 118523 26388  3% 23 270188 45781 36%
c W 117.79 94 537 23 13743 120025 27743  3% 23 270188 45781 36%
c } 118.53 94 504 23 14926 127005 34068  3% 23 270188 45781 36%
c [ 118.53 94 21 23 14926 127005 34068 23% 8 270188 45781 36%
c - 123.18 94 33 24 14926 128831 26645 23% 8 270188 45781 36%
c i 133.15 94 39 24 14929 132841 26775 23% 8 270188 45778 36%
c B 141.06 94 36 24 14931 136026 26876 23% 8 270188 45778 36%
c - 149.89 94 34 25 14933 139569 17906 23% 8 270086 45778 36%
c d 150.99 94 33 25 14933 140003 17921 23% 8 270041 45760 36%
c 3 151.01 94 33 25 14933 140003 18950 23% 8 270041 45760 36%
c 3 151.02 94 33 25 14933 140003 19332 23% 8 270041 45760 36%
c d 151.07 94 33 25 14933 140003 19250 23% 8 270033 45753 36%
c 
c  seconds   reductions        redundant  irredundant
c          MB      restarts           trail       variables
c           level       conflicts         glue         remaining
c 
c 2 151.08 94 33 25 14933 140003 19242 23% 8 270033 45748 36%
c p 151.09 94 33 25 14933 140003 19360 23% 8 270033 45748 36%
c d 151.11 94 33 25 14933 140003 19293 23% 8 269955 45747 36%
c d 151.12 94 33 25 14933 140003 19293 23% 8 269949 45745 36%
c i 153.63 94 33 25 14933 141033 19330 23% 8 269949 45742 36%
c s 156.50 94 32 25 14933 142193 19034 23% 8 269914 45742 36%
c v 156.80 94 32 25 14933 142193 19034 23% 8 269791 45742 36%
c w 156.91 94 32 25 14933 142193 18705 23% 8 269791 45742 36%
c t 156.92 94 32 25 14933 142193 18697 23% 8 269788 45742 36%
c e 157.17 94 32 25 14933 142193 13481 23% 8 280801 40149 32%
c s 157.25 94 32 25 14933 142193 13424 23% 8 280793 40149 32%
c e 157.30 94 32 25 14933 142193 13424 23% 8 280789 40148 32%
c i 173.75 94 28 25 14934 149225 13579 22% 7 280789 40143 32%
c - 177.30 94 28 26 14935 150735 8208 22% 7 280630 40143 32%
c W 183.80 94 27 26 14935 153028 8283 22% 7 280630 40143 32%
c i 184.49 94 26 26 14935 153321 8293 22% 7 280630 40140 32%
c i 189.28 94 26 26 14935 155369 8361 22% 7 280630 40134 32%
c i 191.67 94 25 26 14935 156409 8413 22% 7 280630 40128 32%
c i 192.89 94 25 26 14935 156921 8433 22% 7 280630 40120 32%
c i 193.50 94 25 26 14935 157177 8445 22% 7 280630 40107 32%
c 
c  seconds   reductions       redundant  irredundant
c          MB      restarts          trail       variables
c           level       conflicts        glue         remaining
c 
c i 193.81 94 25 26 14935 157305 8453 22% 7 280630 40086 32%
c i 193.96 94 25 26 14935 157369 8459 22% 7 280630 40057 32%
c i 194.03 94 25 26 14935 157401 8464 22% 7 280630 40022 31%
c i 194.07 94 25 26 14935 157417 8468 22% 7 280630 39976 31%
c i 194.09 94 25 26 14935 157425 8471 22% 7 280630 39924 31%
c i 194.10 94 25 26 14935 157429 8473 22% 7 280630 39759 31%
c i 194.10 94 25 26 14935 157431 8474 22% 7 280630 39523 31%
c ] 194.11 94 25 26 14935 157433 8474 22% 7 280630 31199 25%
c 0 194.11 94 25 26 14935 157433 8474 22% 7 280630 31199 25%
c 
c --- [ result ] -------------------------------------------------------------
c 
s UNSATISFIABLE
c 
c --- [ run-time profiling ] -------------------------------------------------
c 
c process time taken by individual solving procedures
c (percentage relative to process time for solving)
c 
c       189.54   97.74% search
c       178.22   91.90% stable
c         8.21    4.23% unstable
c         4.37    2.26% simplify
c         3.11    1.60% walk
c         1.91    0.99% vivify
c         1.16    0.60% elim
c         0.45    0.23% subsume
c         0.34    0.17% ternary
c         0.19    0.10% parse
c         0.04    0.02% probe
c         0.01    0.01% lucky
c   =================================
c       193.92   99.90% solve
c 
c last line shows process time for solving
c (percentage relative to total process time)
c 
c --- [ statistics ] ---------------------------------------------------------
c 
c chronological:             42009        26.68 %  of conflicts
c conflicts:                157433       811.86    per second
c decisions:               3951234     20375.98    per second
c eliminated:                36698        28.88 %  of all variables
c fixed:                     11084         8.72 %  of all variables
c learned:                  150127        95.36 %  per conflict
c learned_lits:           26594234       100.00 %  learned literals
c minimized:                     0         0.00 %  learned literals
c shrunken:               23377973        87.91 %  learned literals
c minishrunken:             148530         0.56 %  learned literals
c otfs:                       6614         4.20 %  of conflict
c propagations:          734369745         3.79 M  per second
c reduced:                   63960        40.63 %  per conflict
c rephased:                     17      9260.76    interval
c restarts:                  14935        10.54    interval
c stabilizing:                   4        46.01 %  of conflicts
c substituted:                  71         0.06 %  of all variables
c subsumed:                  74359         9.72 %  of all clauses
c strengthened:              11973         1.56 %  of all clauses
c ternary:                   36187         1.49 %  of resolved
c trail reuses:                  0         0.00 %  of incremental calls
c vivified:                   2463         0.32 %  of all clauses
c walked:                        5     31486.60    interval
c weakened:                 131456         2.78    average size
c 
c seconds are measured in process time for solving
c 
c --- [ resources ] ----------------------------------------------------------
c 
c total process time since initialization:       194.11    seconds
c total real time since initialization:          194.11    seconds
c maximum resident set size of process:          105.88    MB
c 
c --- [ shutting down ] ------------------------------------------------------
c 
c exit 20
